16 32
1 2 1
1 5 1
2 3 3
2 6 4
3 4 3
3 7 2
4 8 4
5 6 4
5 9 1
6 7 1
6 10 2
7 8 5
7 11 2
8 12 1
9 10 2
9 13 1
10 11 3
10 14 2
11 12 3
11 15 2
12 16 4
13 14 5
14 15 5
15 16 3
1 13 2
2 14 4
3 15 4
4 16 1
1 4 2
5 8 5
9 12 2
13 16 5
